objective value:                           -7077.5826
x14                                                 1 	(obj:-121.523)
x15                                                 1 	(obj:-316.683)
x59                                                 1 	(obj:-1153.76)
x98                                                 1 	(obj:-85.5196)
x99                                                 1 	(obj:-407.74)
x122                                                1 	(obj:-580.433)
x153                                                1 	(obj:-248.595)
x159                                                1 	(obj:-401.154)
x206                                                1 	(obj:-169.169)
x216                                                1 	(obj:-429.566)
x239                                                1 	(obj:-378.372)
x264                                                1 	(obj:-405.69)
x274                                                1 	(obj:-320.499)
x300                                                1 	(obj:-211.433)
x340                                                1 	(obj:-626.823)
x433                                                1 	(obj:-349.408)
x445                                                1 	(obj:-470.831)
x453                                                1 	(obj:-247.371)
x482                                                1 	(obj:-153.013)
